160508.0
0 5 87 91 25 33 68 15 82 92 56 77 80 8 60 76 26 75 94 22 48 58 23 38 3 49 2 71 16 84 11 4 41 30 32 53 63 35 85 24 46 95 44 37 45 12 93 65 13 29 17 6 36 74 69 18 78 89 59 72 43 99 21 39 19 66 28 64 31 90 42 81 83 14 96 88 7 20 50 47 86 97 52 10 55 73 79 1 67 54 34 27 62 57 9 40 98 61 70 51 0 